(set-info :source |printed by MathSAT|)
(declare-fun |!{$(in_main#0)<CELLCOUNT_2>}| () Int)
(declare-fun |!{$(in_main#0)<CELLCOUNT_2>}.next| () Int)
(declare-fun |!{$(in_main#0)<MINVAL>}| () Int)
(declare-fun |!{$(in_main#0)<MINVAL>}.next| () Int)
(declare-fun |!{$(in_main#0)<i>}| () Int)
(declare-fun |!{$(in_main#0)<i>}.next| () Int)
(declare-fun |!{$(in_main#0)<k>}| () Int)
(declare-fun |!{$(in_main#0)<k>}.next| () Int)
(declare-fun |!{$(in_main#0)<volArray.1>}| () (Array Int Int))
(declare-fun |!{$(in_main#0)<volArray.1>}.next| () (Array Int Int))
(declare-fun |!{$(in_main#0)<$(in___VERIFIER_nondet_int#0)<h#<__VERIFIER_nondet_int.return>>>}| () Int)
(declare-fun !pc () Int)
(declare-fun !pc.next () Int)
(declare-fun |%{$(in_main#0)<MINVAL>}#1| () Int)
(declare-fun |%{$(in_main#0)<k>}#1| () Int)
(declare-fun |%{$(in_main#0)<volArray.1>}#1| () (Array Int Int))
(declare-fun |%{$(in_main#0)<volArray.1>}#2| () (Array Int Int))
(declare-fun |%{$(in_main#0)<volArray.1>}#4| () (Array Int Int))
(define-fun .def_28 () Int (! !pc :next !pc.next))
(define-fun .def_31 () Bool (! (= .def_28 2) :init true))
(define-fun .def_175 () Bool (= .def_28 37))
(define-fun .def_110 () Bool (= !pc.next 71))
(define-fun .def_178 () Bool (and .def_110 .def_175))
(define-fun .def_171 () Bool (= |!{$(in_main#0)<k>}.next| 0))
(define-fun .def_10 () Int (! |!{$(in_main#0)<MINVAL>}| :next |!{$(in_main#0)<MINVAL>}.next|))
(define-fun .def_81 () Bool (= .def_10 |!{$(in_main#0)<MINVAL>}.next|))
(define-fun .def_8 () Int (! |!{$(in_main#0)<CELLCOUNT_2>}| :next |!{$(in_main#0)<CELLCOUNT_2>}.next|))
(define-fun .def_79 () Bool (= .def_8 |!{$(in_main#0)<CELLCOUNT_2>}.next|))
(define-fun .def_90 () Bool (and .def_79 .def_81))
(define-fun .def_12 () Int (! |!{$(in_main#0)<i>}| :next |!{$(in_main#0)<i>}.next|))
(define-fun .def_83 () Bool (= .def_12 |!{$(in_main#0)<i>}.next|))
(define-fun .def_91 () Bool (and .def_83 .def_90))
(define-fun .def_172 () Bool (and .def_91 .def_171))
(define-fun .def_16 () (Array Int Int) (! |!{$(in_main#0)<volArray.1>}| :next |!{$(in_main#0)<volArray.1>}.next|))
(define-fun .def_87 () Bool (= .def_16 |!{$(in_main#0)<volArray.1>}.next|))
(define-fun .def_173 () Bool (and .def_87 .def_172))
(define-fun .def_121 () Bool (<= .def_12 .def_8))
(define-fun .def_160 () Bool (not .def_121))
(define-fun .def_174 () Bool (and .def_160 .def_173))
(define-fun .def_179 () Bool (and .def_174 .def_178))
(define-fun .def_60 () Bool (= !pc.next 37))
(define-fun .def_176 () Bool (and .def_60 .def_175))
(define-fun .def_166 () Bool (= |!{$(in_main#0)<volArray.1>}.next| |%{$(in_main#0)<volArray.1>}#4|))
(define-fun .def_161 () Int (* (- 1) |!{$(in_main#0)<i>}.next|))
(define-fun .def_162 () Int (+ .def_12 .def_161))
(define-fun .def_163 () Bool (= .def_162 (- 1)))
(define-fun .def_164 () Bool (and .def_90 .def_163))
(define-fun .def_14 () Int (! |!{$(in_main#0)<k>}| :next |!{$(in_main#0)<k>}.next|))
(define-fun .def_85 () Bool (= .def_14 |!{$(in_main#0)<k>}.next|))
(define-fun .def_165 () Bool (and .def_85 .def_164))
(define-fun .def_167 () Bool (and .def_165 .def_166))
(define-fun .def_124 () Int (* 2 .def_12))
(define-fun .def_142 () Int (+ .def_124 (- 1)))
(define-fun .def_145 () (Array Int Int) (store |%{$(in_main#0)<volArray.1>}#2| .def_142 0))
(define-fun .def_153 () Bool (= .def_145 |%{$(in_main#0)<volArray.1>}#4|))
(define-fun .def_140 () Bool (<= .def_10 1))
(define-fun .def_144 () Bool (not .def_140))
(define-fun .def_155 () Bool (and .def_144 .def_153))
(define-fun .def_143 () (Array Int Int) (store |%{$(in_main#0)<volArray.1>}#2| .def_142 1))
(define-fun .def_152 () Bool (= .def_143 |%{$(in_main#0)<volArray.1>}#4|))
(define-fun .def_154 () Bool (and .def_140 .def_152))
(define-fun .def_156 () Bool (or .def_154 .def_155))
(define-fun .def_168 () Bool (and .def_156 .def_167))
(define-fun .def_126 () Int (+ .def_124 (- 2)))
(define-fun .def_129 () (Array Int Int) (store .def_16 .def_126 0))
(define-fun .def_135 () Bool (= .def_129 |%{$(in_main#0)<volArray.1>}#2|))
(define-fun .def_123 () Bool (<= .def_10 3))
(define-fun .def_128 () Bool (not .def_123))
(define-fun .def_137 () Bool (and .def_128 .def_135))
(define-fun .def_127 () (Array Int Int) (store .def_16 .def_126 3))
(define-fun .def_134 () Bool (= .def_127 |%{$(in_main#0)<volArray.1>}#2|))
(define-fun .def_136 () Bool (and .def_123 .def_134))
(define-fun .def_138 () Bool (or .def_136 .def_137))
(define-fun .def_169 () Bool (and .def_138 .def_168))
(define-fun .def_170 () Bool (and .def_121 .def_169))
(define-fun .def_177 () Bool (and .def_170 .def_176))
(define-fun .def_180 () Bool (or .def_177 .def_179))
(define-fun .def_114 () Bool (= !pc.next 0))
(define-fun .def_105 () Bool (= .def_28 71))
(define-fun .def_115 () Bool (and .def_105 .def_114))
(define-fun .def_65 () Int (* (- 1) .def_14))
(define-fun .def_63 () Int (* 2 .def_8))
(define-fun .def_66 () Int (+ .def_63 .def_65))
(define-fun .def_67 () Bool (<= .def_66 0))
(define-fun .def_99 () Bool (and .def_67 .def_79))
(define-fun .def_100 () Bool (and .def_81 .def_99))
(define-fun .def_101 () Bool (and .def_83 .def_100))
(define-fun .def_102 () Bool (and .def_85 .def_101))
(define-fun .def_103 () Bool (and .def_87 .def_102))
(define-fun .def_116 () Bool (and .def_103 .def_115))
(define-fun .def_111 () Bool (and .def_105 .def_110))
(define-fun .def_92 () Int (* (- 1) |!{$(in_main#0)<k>}.next|))
(define-fun .def_93 () Int (+ .def_14 .def_92))
(define-fun .def_94 () Bool (= .def_93 (- 1)))
(define-fun .def_95 () Bool (and .def_91 .def_94))
(define-fun .def_96 () Bool (and .def_87 .def_95))
(define-fun .def_69 () Int (select .def_16 .def_14))
(define-fun .def_71 () Bool (= .def_69 0))
(define-fun .def_70 () Bool (<= .def_10 .def_69))
(define-fun .def_72 () Bool (or .def_70 .def_71))
(define-fun .def_73 () Int (ite .def_72 1 0))
(define-fun .def_74 () Bool (= .def_73 0))
(define-fun .def_75 () Bool (not .def_74))
(define-fun .def_97 () Bool (and .def_75 .def_96))
(define-fun .def_68 () Bool (not .def_67))
(define-fun .def_98 () Bool (and .def_68 .def_97))
(define-fun .def_112 () Bool (and .def_98 .def_111))
(define-fun .def_107 () Bool (= !pc.next 91))
(define-fun .def_108 () Bool (and .def_105 .def_107))
(define-fun .def_80 () Bool (and .def_74 .def_79))
(define-fun .def_82 () Bool (and .def_80 .def_81))
(define-fun .def_84 () Bool (and .def_82 .def_83))
(define-fun .def_86 () Bool (and .def_84 .def_85))
(define-fun .def_88 () Bool (and .def_86 .def_87))
(define-fun .def_89 () Bool (and .def_68 .def_88))
(define-fun .def_109 () Bool (and .def_89 .def_108))
(define-fun .def_113 () Bool (or .def_109 .def_112))
(define-fun .def_117 () Bool (or .def_113 .def_116))
(define-fun .def_61 () Bool (and .def_31 .def_60))
(define-fun .def_56 () Bool (= |!{$(in_main#0)<volArray.1>}.next| |%{$(in_main#0)<volArray.1>}#1|))
(define-fun .def_54 () Bool (= |!{$(in_main#0)<k>}.next| |%{$(in_main#0)<k>}#1|))
(define-fun .def_52 () Bool (= |!{$(in_main#0)<i>}.next| 1))
(define-fun .def_50 () Bool (= |!{$(in_main#0)<MINVAL>}.next| |%{$(in_main#0)<MINVAL>}#1|))
(define-fun .def_49 () Bool (= |!{$(in_main#0)<CELLCOUNT_2>}.next| |!{$(in_main#0)<$(in___VERIFIER_nondet_int#0)<h#<__VERIFIER_nondet_int.return>>>}|))
(define-fun .def_51 () Bool (and .def_49 .def_50))
(define-fun .def_53 () Bool (and .def_51 .def_52))
(define-fun .def_55 () Bool (and .def_53 .def_54))
(define-fun .def_57 () Bool (and .def_55 .def_56))
(define-fun .def_44 () Bool (<= |!{$(in_main#0)<$(in___VERIFIER_nondet_int#0)<h#<__VERIFIER_nondet_int.return>>>}| 0))
(define-fun .def_45 () Bool (not .def_44))
(define-fun .def_46 () Int (ite .def_45 1 0))
(define-fun .def_47 () Bool (= .def_46 0))
(define-fun .def_48 () Bool (not .def_47))
(define-fun .def_58 () Bool (and .def_48 .def_57))
(define-fun .def_62 () Bool (and .def_58 .def_61))
(define-fun .def_118 () Bool (or .def_62 .def_117))
(define-fun .def_181 () Bool (! (or .def_118 .def_180) :trans true))
(define-fun .def_119 () Bool (= .def_28 91))
(define-fun .def_182 () Bool (! (not .def_119) :invar-property 0 :invar-property-name ||))
(assert true)
